outputs/case_305.model.txt
own_capital = 500000
insurance_fund = 10000
issuer_equity = 10000
authority_specified_amount = 1000
loan_secured_by_movable_or_immovable = False
risk_capital = 1000000
combined_loan_and_investment_amount = 1500
non_investment_assets = 1000000
related_party_loan_amount = 2000
loan_amount_per_unit_first_to_third = 600
board_attendance_ratio = 666667/10000
owner_equity = 100000
board_approval_ratio = 75
loan_secured_by_life_insurance_policy = True
loan_guaranteed_by_bank_or_authority = False
loan_total_amount_first_to_third = 4000
loan_secured_by_qualified_securities = False
related_party_loan_conditions_not_better = True
related_party_loan_has_full_guarantee = True
internal_handling_established = True
loan_total_limit_ok = True
internal_handling_ok = True
loan_investment_combined_limit_ok = True
capital_level = 0
derivative_trading_compliance = True
loan_single_limit_ok = True
loan_related_party_board_approval_ok = True
internal_control_executed = True
loan_compliance = True
net_worth_ratio = 10
loan_related_party_guarantee_ok = True
loan_type_valid = True
penalty = False
derivative_trading_meets_regulations = True
internal_handling_executed = True
internal_control_established = True
internal_control_ok = True
loan_related_party_compliance = True
capital_adequacy_ratio = 50
loan_limit_compliance = True
/0 = [(100000, 1000000) -> 1/10, else -> 1/2]